5
181 149 419  0
3000 3000 3000 0
345 25 10  0
476 59 187  0
4000 400 400  0
10
480 495 289  174 71
54 378 176  368 91
276 201 486  484 292
182 424 372  360 458
219 379 231  294 207
140 471 336  452 305
40 276 416  280 60
250 186 80  351 444
435 140 312  259 455
375 325 471  242 157
